seed= 2052018 ;
N= 14 ;
M= 2 ;
F= 2 ;
K= 4 ;
T= 78 ;

p=[ 20 20 20 20 20 20 20 10 10 10 10 10 10 10 ];
r=[ 7 0 7 1 0 2 9 10 6 9 13 2 0 12 ];
d=[ 13 0 30 14 22 28 7 4 18 3 15 18 19 16 ];
s=[ 1 1 1 1 1 1 1 1 1 1 1 1 1 1 ];
w=[ 4 5 3 4 2 2 4 1 4 1 3 4 4 1 ];
f=[ 1 1 1 1 1 1 1 2 2 2 2 2 2 2 ];

e1=[ 10 10 10 10 10 10 10 10 10 10 10 10 10 10 10 10 10 10 10 10 10 10 10 10 10 10 10 10 10 10 10 10 10 10 10 10 10 10 10 8 8 8 8 8 8 8 8 8 8 8 8 8 8 8 8 8 8 8 8 8 8 8 8 8 8 8 8 8 8 8 8 8 8 8 8 8 8 8 ];
e2=[ 10 10 10 10 10 10 10 10 10 10 10 10 10 10 10 10 10 10 10 10 10 10 10 10 10 10 9 9 9 9 9 9 9 9 9 9 9 9 9 8 8 8 8 8 8 8 8 8 8 8 8 8 8 8 8 8 8 8 8 8 8 8 8 8 8 9 9 9 9 9 9 9 9 9 9 9 9 9 ];